0001 20
0002 4
0003 9
0004 15
0005 6
0006 29
0007 32
0008 28
0009 23
0010 31
0011 2
0012 27
0013 19
0014 13
0015 14
0016 16
0017 4
0018 29
0019 3
0020 4
0021 8
0022 1
0023 5
0024 31
0025 2
0026 3
0027 26
0028 10
0029 24
0030 2
0031 10
0032 2
0033 3
0034 11
0035 10
0036 29
0037 27
0038 1
0039 1
0040 16
0041 30
0042 27
0043 28
0044 26
0045 15
0046 28
0047 6
0048 2
0049 30
0050 27
0051 1
0052 20
0053 6
0054 2
0055 15
0056 12
0057 7
0058 25
0059 25
0060 26
0061 6
0062 1
0063 30
0064 4
0065 32
0066 32
0067 24
0068 31
0069 32
0070 32
0071 16
0072 25
0073 26
0074 6
0075 30
0076 28
0077 4
0078 16
0079 27
0080 31
0081 5
0082 32
0083 32
0084 3
0085 28
0086 24
0087 13
0088 8
0089 31
0090 12
0091 1
0092 12
0093 12
0094 9
0095 15
0096 14
0097 29
0098 11
0099 8
0100 8
0101 24
0102 10
0103 19
0104 21
0105 25
0106 23
0107 24
0108 28
0109 28
0110 18
0111 29
0112 20
0113 4
0114 15
0115 14
0116 2
0117 12
0118 6
0119 19
0120 11
0121 1
0122 6
0123 21
0124 16
0125 7
0126 24
0127 1
0128 20
0129 6
0130 32
0131 28
0132 1
0133 9
0134 16
0135 13
0136 6
0137 10
0138 2
0139 5
0140 19
0141 24
0142 3
0143 9
0144 3
0145 3
0146 6
0147 13
0148 8
0149 25
0150 31
0151 26
0152 2
0153 2
0154 31
0155 26
0156 4
0157 8
0158 1
0159 32
0160 6
0161 32
0162 1
0163 31
0164 25
0165 14
0166 31
0167 1
0168 4
0169 31
0170 1
0171 25
0172 28
0173 27
0174 27
0175 12
0176 26
0177 24
0178 6
0179 24
0180 22
0181 23
0182 26
0183 26
0184 31
0185 4
0186 3
0187 30
0188 2
0189 27
0190 5
0191 30
0192 1
0193 31
0194 28
0195 13
0196 25
0197 9
0198 12
0199 24
0200 3
0201 29
0202 27
0203 26
0204 32
0205 4
0206 29
0207 21
0208 19
0209 15
0210 32
0211 18
0212 7
0213 29
0214 11
0215 18
0216 2
0217 10
0218 16
0219 28
0220 30
0221 7
0222 6
0223 26
0224 30
0225 31
0226 31
0227 8
0228 2
0229 29
0230 32
0231 3
0232 1
0233 32
0234 32
0235 20
0236 31
0237 28
0238 21
0239 17
0240 8
0241 12
0242 11
0243 30
0244 1
0245 14
0246 13
0247 32
0248 1
0249 9
0250 6
0251 2
0252 30
0253 1
0254 32
0255 5
0256 5
0257 5
0258 5
0259 5
0260 13
0261 5
0262 3
0263 10
0264 3
0265 30
0266 30
0267 17
0268 7
0269 7
0270 2
0271 26
0272 17
0273 9
0274 15
0275 32
0276 27
0277 3
0278 32
0279 10
0280 30
0281 5
0282 23
0283 21
0284 29
0285 31
0286 28
0287 1
0288 22
0289 29
0290 7
0291 22
0292 12
0293 9
0294 17
0295 8
0296 18
0297 15
0298 29
0299 29
0300 21
0301 16
0302 3
0303 22
0304 7
0305 4
0306 14
0307 12
0308 15
0309 32
0310 1
0311 11
0312 25
0313 19
0314 17
0315 31
0316 13
0317 1
0318 32
0319 8
0320 1
0321 17
0322 22
0323 1
0324 2
0325 4
0326 25
0327 4
0328 32
0329 18
0330 23
0331 18
0332 1
0333 32
0334 20
0335 32
0336 16
0337 23
0338 8
0339 14
0340 25
0341 11
0342 11
0343 16
0344 32
0345 1
0346 4
0347 7
0348 7
0349 23
0350 11
0351 29
0352 8
0353 11
0354 30
0355 17
0356 17
0357 4
0358 13
0359 2
0360 32
0361 29
0362 24
0363 20
0364 10
0365 28
0366 5
0367 9
0368 19
0369 32
0370 31
0371 20
0372 30
0373 27
0374 21
0375 7
0376 8
0377 18
0378 25
0379 31
0380 14
0381 20
0382 26
0383 28
0384 24
0385 6
0386 28
0387 31
0388 25
0389 27
0390 7
0391 26
0392 27
0393 4
0394 31
0395 3
0396 32
0397 7
0398 7
0399 6
0400 19
0401 15
0402 31
0403 3
0404 5
0405 29
0406 10
0407 26
0408 5
0409 28
0410 1
0411 21
0412 32
0413 9
0414 3
0415 32
0416 1
0417 31
0418 30
0419 23
0420 12
0421 25
0422 30
0423 20
0424 24
0425 9
0426 25
0427 14
0428 19
0429 30
0430 1
0431 7
0432 2
0433 8
0434 1
0435 2
0436 5
0437 4
0438 8
0439 6
0440 3
0441 31
0442 27
0443 30
0444 1
0445 31
0446 1
0447 2
0448 3
0449 6
0450 32
0451 29
0452 8
0453 4
0454 17
0455 27
0456 10
0457 8
0458 6
0459 31
0460 19
0461 1
0462 20
0463 32
0464 3
0465 1
0466 32
0467 16
0468 2
0469 6
0470 7
0471 5
0472 32
0473 32
0474 31
0475 1
0476 29
0477 6
0478 1
0479 31
0480 7
0481 28
0482 7
0483 32
0484 31
0485 8
0486 29
0487 6
0488 30
0489 32
0490 28
0491 3
0492 4
0493 17
0494 32
0495 1
0496 1
0497 21
0498 11
0499 26
0500 2
0501 5
0502 10
0503 3
0504 30
0505 18
0506 9
0507 8
0508 4
0509 31
0510 7
0511 5
0512 4
0513 30
0514 32
0515 3
0516 1
0517 29
0518 32
0519 1
0520 3
0521 6
0522 7
0523 26
0524 3
0525 11
0526 11
0527 5
0528 28
0529 29
0530 7
0531 30
0532 32
0533 9
0534 4
0535 28
0536 1
0537 6
0538 8
0539 2
0540 31
0541 5
0542 9
0543 2
